36 40
5 9 1
1 4 1
8 2 1
4 9 1
1 2 2
4 6 1
4 4 1
1 6 1
1 5 1
4 5 1
2 6 1
9 10 1
5 2 2
3 1 1
7 10 1
7 4 1
6 6 1
9 2 1
7 8 1
5 7 2
2 5 1
10 10 1
5 4 2
4 7 1
9 8 1
8 10 1
6 5 1
4 8 1
2 9 1
8 9 1
9 4 1
8 3 1
10 8 1
5 5 1
4 3 1
3 3 1
10 10 
10 10 
10 10 
10 10 
10 10 
10 10 
10 10 
10 10 
10 10 
10 10 
10 10 
10 10 
10 10 
10 10 
10 10 
10 10 
10 10 
10 10 
10 10 
10 10 
10 10 
10 10 
10 10 
10 10 
10 10 
10 10 
10 10 
10 10 
10 10 
10 10 
10 10 
10 10 
10 10 
10 10 
10 10 
10 10 
10 10 
10 10 
10 10 
10 10 
